webassembly/ejemplos_dzn/13/folder13_json_57.dzn
TERM = { '.', 's(5)', 's(2)', 's(4)', 'in_1', 'local_0', 's(9)', 'local_1', 'in_2', 'in_3', 's(8)', 's(6)', 's(1)', 's(0)', 's(7)', 's(3)', 'in_0'};
null = '.';
s = 13;
n = 9;
ndeps = 0;
max_registers_sz = 5;
NR = 2;
registers = [|'local_0', 's(4)', |'local_1', 'in_1'|];
dependencies = [| |];
GET_ENUM = { GET1, GET2, GET3, GET4, GET5, GET6, GET7};
SET_ENUM = { SET1, SET2, SET3, SET4, SET5, SET6, SET7};
TEE_ENUM = { TEE1, TEE2, TEE3, TEE4, TEE5, TEE6, TEE7};
N = 10;
OP = { 'i32.load16_s_0', 'i32.const_0', 'i32.load8_s_4', 'i32.load_5', 'i32.sub_0', 'i32.sub_1', 'i32.load8_u_9', 'i32.load_10', 'i32.load8_u_11', 'i32.load8_s_12' };
in_ops = [1, 0, 1, 1, 2, 2, 1, 1, 1, 1 ];
out_ops = [1, 1, 1, 1, 1, 1, 1, 1, 1, 1 ];
in1 = ['in_0', '.', 's(9)', 's(1)', 's(2)', 's(3)', 's(4)', 's(5)', 's(6)', 's(7)' ];
in2 = ['.', '.', '.', '.', 'in_2', 'in_3', '.', '.', '.', '.' ];
in3 = ['.', '.', '.', '.', '.', '.', '.', '.', '.', '.' ];
out1 = ['s(0)', 's(9)', 's(1)', 's(2)', 's(3)', 's(4)', 's(5)', 's(6)', 's(7)', 's(8)' ];
out2 = ['.', '.', '.', '.', '.', '.', '.', '.', '.', '.' ];
out3 = ['.', '.', '.', '.', '.', '.', '.', '.', '.', '.' ];
comm = [false, false, false, false, false, false, false, false, false, false ];
gas = [1, 1, 1, 1, 1, 1, 1, 1, 1, 1 ];
sz = [1, 1, 1, 1, 1, 1, 1, 1, 1, 1 ];
stor = [false, false, false, false, false, false, false, false, false, false ];
lb = [ 1, 1, 1, 1, 1, 1, 1, 1, 1, 1 ];
ub = [ 13, 13, 13, 13, 13, 13, 13, 13, 13, 13 ];
startstack = [ 'in_0', 'in_1', 'in_2', 'in_3', null, null, null, null, null ];
endstack = [ 's(8)', null, null, null, null, null, null, null, null ];
