webassembly/ejemplos_results/13/folder13_json_57.txt
value = 13;
fgas = [1, 2, 1, 1, 1, 1, 1, 1, 1, 1, 1, 1, 1];
fsize = [1, 1, 1, 1, 1, 1, 1, 1, 1, 1, 1, 1, 1];
states = 
[|   in_0,   in_1, in_2, in_3, '.', '.', '.', '.', '.'
 | 's(0)',   in_1, in_2, in_3, '.', '.', '.', '.', '.'
 |   in_1,   in_2, in_3,  '.', '.', '.', '.', '.', '.'
 |   in_2,   in_3,  '.',  '.', '.', '.', '.', '.', '.'
 | 's(9)',   in_2, in_3,  '.', '.', '.', '.', '.', '.'
 | 's(1)',   in_2, in_3,  '.', '.', '.', '.', '.', '.'
 | 's(2)',   in_2, in_3,  '.', '.', '.', '.', '.', '.'
 | 's(3)',   in_3,  '.',  '.', '.', '.', '.', '.', '.'
 | 's(4)', 's(4)',  '.',  '.', '.', '.', '.', '.', '.'
 | 's(4)',    '.',  '.',  '.', '.', '.', '.', '.', '.'
 | 's(5)',    '.',  '.',  '.', '.', '.', '.', '.', '.'
 | 's(6)',    '.',  '.',  '.', '.', '.', '.', '.', '.'
 | 's(7)',    '.',  '.',  '.', '.', '.', '.', '.', '.'
 | 's(8)',    '.',  '.',  '.', '.', '.', '.', '.', '.'
 |];
register_states = 
[| local_0, local_1, '.', '.', '.', '.', '.'
 | local_0, local_1, '.', '.', '.', '.', '.'
 | local_0, local_1, '.', '.', '.', '.', '.'
 | local_0,    in_1, '.', '.', '.', '.', '.'
 | local_0,    in_1, '.', '.', '.', '.', '.'
 | local_0,    in_1, '.', '.', '.', '.', '.'
 | local_0,    in_1, '.', '.', '.', '.', '.'
 | local_0,    in_1, '.', '.', '.', '.', '.'
 | local_0,    in_1, '.', '.', '.', '.', '.'
 |  's(4)',    in_1, '.', '.', '.', '.', '.'
 |  's(4)',    in_1, '.', '.', '.', '.', '.'
 |  's(4)',    in_1, '.', '.', '.', '.', '.'
 |  's(4)',    in_1, '.', '.', '.', '.', '.'
 |  's(4)',    in_1, '.', '.', '.', '.', '.'
 |];
program = [O('i32.load16_s_0'), POP, S(SET2), O('i32.const_0'), O('i32.load8_s_4'), O('i32.load_5'), O('i32.sub_0'), O('i32.sub_1'), S(SET1), O('i32.load8_u_9'), O('i32.load_10'), O('i32.load8_u_11'), O('i32.load8_s_12')];
% time elapsed: 0.64 s
----------
==========
% time elapsed: 0.66 s
% [value > 12]
